(declare-const |phi_tmp___1:17:22:24| Int)
(declare-const |x':71| Int)
(declare-const |K:77| Int)
(declare-const |phi_tmp___1:23:25| Int)
(declare-const |havoc:0| Int)
(declare-const |m':72| Int)
(assert (and (or (not (<= (- |K:77|) 0)) (= (+ |x':71| (- |K:77|)) 0))
               (or (not (<= (- |K:77|) 0))
                     (<= (+ (* 2 |m':72|) (- (* |K:77| |K:77|)) |K:77|) 0))
               (or (and (= |K:77| 0) (= (- |m':72|) 0) (= (- |x':71|) 0))
                     (and (<= (+ (- |K:77|) 1) 0) (<= (+ (- |havoc:0|) 1) 0)
                            (<= (+ (- |havoc:0|) |x':71|) 0)
                            (<= (- |m':72|) 0) (<= (+ (- |x':71|) 1) 0)))
               (<= (- |K:77|) 0) (<= (- |m':72|) 0) (<= (- |x':71|) 0)
               (<= (+ |havoc:0| (- |x':71|)) 0)
               (or (and (< |m':72| 0)
                          (or (and (< (- |havoc:0|) 0)
                                     (= (- |phi_tmp___1:17:22:24|) 0))
                                (and (<= |havoc:0| 0)
                                       (= (+ (- |phi_tmp___1:17:22:24|) 1) 0)))
                          (= (+ (- |phi_tmp___1:23:25|)
                                  |phi_tmp___1:17:22:24|) 0))
                     (and (<= (- |m':72|) 0)
                            (= (+ (- |phi_tmp___1:23:25|) 1) 0)))
               (= |phi_tmp___1:23:25| 0)))
(check-sat)
